10	5 
353	4	1	23	2	45	0	82	4	84	3	38
206	4	2	21	1	29	0	18	4	41	3	50
275	2	2	38	3	54	4	16	0	52	1	52
369	2	4	37	0	54	2	74	1	62	3	57
386	2	4	57	0	81	1	61	3	68	2	30
453	2	4	81	0	79	1	89	2	89	3	11
299	2	3	33	2	20	0	91	4	20	1	66
263	2	4	24	1	84	0	32	2	55	3	8
286	1	4	56	0	7	3	54	2	64	1	39
204	1	4	40	1	83	0	19	2	8	3	7
